;; sequence(s): A187331
;; terms: 0 1 4 6 10 11 14 16 20 21 24 26 30 31 34 36 40 41 44 46
;; small program: ((x div 2) div 2) + loop((x div 2) + x, 2, x)
;; fast program: (((x div 2) - (if (x mod (2 + 2)) <= 0 then 0 else 1)) + x) + x
(set-logic UFNIA)
(declare-fun f0 (Int) Int)
(declare-fun g0 () Int)
(declare-fun h0 (Int) Int)
(declare-fun u0 (Int Int) Int)
(declare-fun v0 (Int) Int)
(declare-fun small (Int) Int)
(declare-fun fast (Int) Int)
(assert (forall ((x Int)) (= (f0 x) (+ (div x 2) x))))
(assert (= g0 2))
(assert (forall ((x Int)) (= (h0 x) x)))
(assert (forall ((x Int) (y Int)) (= (u0 x y) (ite (<= x 0) y (f0 (u0 (- x 1) y))))))
(assert (forall ((x Int)) (= (v0 x) (u0 g0 (h0 x)))))
(assert (forall ((x Int)) (= (small x) (+ (div (div x 2) 2) (v0 x)))))
(assert (forall ((x Int)) (= (fast x) (+ (+ (- (div x 2) (ite (<= (mod x (+ 2 2)) 0) 0 1)) x) x))))
(assert (exists ((c Int)) (and (>= c 0) (not (= (small c) (fast c))))))
(check-sat)
